
Gurobi 9.5.0 (linux64) logging started Fri Dec  8 09:45:30 2023

Set parameter LogFile to value "/lustre1/scratch/348/vsc34888/JointResearch/05.Models/06.Benchmarking/F.Representative_days_based_on_Line_Benefit_NN_OC_fy_1/RTS24_mod1_ByStages_nc400/openStarNet_RTS24_mod1_ByStages_nc400.log"
Set parameter Method to value 2
Set parameter MIPFocus to value 1
Set parameter Presolve to value 2
Set parameter RINS to value 100
Set parameter MIPGap to value 0.01
Set parameter Threads to value 36
Set parameter TimeLimit to value 259200
Set parameter IterationLimit to value 760000000
Gurobi Optimizer version 9.5.0 build v9.5.0rc5 (linux64)
Thread count: 36 physical cores, 36 logical processors, using up to 36 threads
Optimize a model with 142358 rows, 96092 columns and 388128 nonzeros
Model fingerprint: 0xc39be7fe
Variable types: 96071 continuous, 21 integer (21 binary)
Coefficient statistics:
  Matrix range     [8e-04, 8e+02]
  Objective range  [1e+00, 1e+00]
  Bounds range     [3e-05, 3e+00]
  RHS range        [3e-05, 3e+00]
Presolve removed 84789 rows and 48725 columns
Presolve time: 0.59s
Presolved: 57569 rows, 47367 columns, 207957 nonzeros
Variable types: 47346 continuous, 21 integer (21 binary)
Root relaxation presolved: 57569 rows, 47367 columns, 207957 nonzeros

Root barrier log...

Ordering time: 0.01s

Barrier statistics:
 Dense cols : 21
 AA' NZ     : 3.862e+05
 Factor NZ  : 1.125e+06 (roughly 50 MB of memory)
 Factor Ops : 2.577e+07 (less than 1 second per iteration)
 Threads    : 35

                  Objective                Residual
Iter       Primal          Dual         Primal    Dual     Compl     Time
   0   6.75423454e+05 -2.95588917e+08  5.40e+00 1.32e+02  6.27e+03     1s
   1   1.10025870e+05 -7.74320899e+07  7.34e-01 1.74e-08  8.87e+02     1s
   2   4.35779067e+04 -4.15341484e+07  1.85e-01 7.14e-09  3.62e+02     1s
   3   2.28994403e+04 -4.68059354e+06  9.11e-03 1.32e-09  3.57e+01     1s
   4   1.75698626e+04 -4.54789005e+05  9.77e-04 2.30e-10  3.53e+00     1s
   5   7.83851722e+03 -1.05014105e+05  5.06e-05 5.63e-11  8.41e-01     1s
   6   2.75546894e+03 -2.46695597e+04  1.05e-05 1.73e-11  2.04e-01     1s
   7   9.29406935e+02 -6.77759973e+03  2.20e-06 5.25e-12  5.75e-02     1s
   8   3.39059985e+02 -1.26538861e+03  2.42e-07 1.05e-12  1.20e-02     1s
   9   2.15580888e+02 -5.28198831e+02  1.11e-07 4.55e-13  5.54e-03     1s
  10   1.49219819e+02 -2.46732250e+02  5.79e-08 9.09e-13  2.95e-03     1s
  11   1.00165213e+02 -5.71505553e+01  2.46e-08 2.27e-13  1.17e-03     1s
  12   7.97235781e+01  1.01110273e+01  1.37e-08 9.09e-13  5.19e-04     1s
  13   7.08430819e+01  2.33074890e+01  9.28e-09 9.09e-13  3.54e-04     1s
  14   6.67660932e+01  3.18005321e+01  7.25e-09 4.55e-13  2.61e-04     1s
  15   6.14000013e+01  3.70781400e+01  4.61e-09 4.55e-13  1.81e-04     1s
  16   5.96587377e+01  4.02067665e+01  3.65e-09 4.55e-13  1.45e-04     1s
  17   5.76067963e+01  4.26454793e+01  2.77e-09 4.55e-13  1.12e-04     1s
  18   5.64939124e+01  4.53951307e+01  2.27e-09 9.09e-13  8.27e-05     1s
  19   5.51422240e+01  4.69296589e+01  1.54e-09 9.09e-13  6.12e-05     1s
  20   5.44219822e+01  4.89289915e+01  1.19e-09 9.09e-13  4.09e-05     2s
  21   5.39150532e+01  4.95272426e+01  8.83e-10 4.55e-13  3.27e-05     2s
  22   5.33989451e+01  5.00446190e+01  5.88e-10 9.09e-13  2.50e-05     2s
  23   5.31380510e+01  5.07567194e+01  4.24e-10 4.55e-13  1.78e-05     2s
  24   5.29312188e+01  5.11724329e+01  3.05e-10 4.55e-13  1.31e-05     2s
  25   5.28593322e+01  5.17074483e+01  2.66e-10 4.55e-13  8.59e-06     2s
  26   5.27302845e+01  5.18114659e+01  1.92e-10 4.55e-13  6.85e-06     2s
  27   5.26361841e+01  5.20417404e+01  1.35e-10 4.55e-13  4.43e-06     2s
  28   5.25294743e+01  5.21445144e+01  7.22e-11 2.27e-13  2.87e-06     2s
  29   5.25004678e+01  5.22748150e+01  5.69e-11 4.55e-13  1.68e-06     2s
  30   5.24692653e+01  5.23279287e+01  4.04e-11 4.55e-13  1.05e-06     2s
  31   5.24536780e+01  5.23728450e+01  3.52e-11 4.55e-13  6.03e-07     2s
  32   5.24251359e+01  5.23947616e+01  4.86e-11 4.55e-13  2.26e-07     2s
  33   5.24125634e+01  5.24023172e+01  8.61e-11 8.90e-13  7.64e-08     2s
  34   5.24102373e+01  5.24043882e+01  8.86e-11 1.31e-12  4.36e-08     2s
  35   5.24086065e+01  5.24051502e+01  5.15e-11 3.03e-12  2.58e-08     2s
  36   5.24082915e+01  5.24055000e+01  4.72e-11 7.40e-12  2.08e-08     2s
  37   5.24077905e+01  5.24058978e+01  6.05e-11 1.76e-12  1.41e-08     2s
  38   5.24074895e+01  5.24061340e+01  4.79e-11 3.67e-12  1.01e-08     2s
  39   5.24068478e+01  5.24063405e+01  8.56e-11 5.17e-12  3.78e-09     2s
  40   5.24068176e+01  5.24065730e+01  6.70e-11 5.17e-10  1.82e-09     2s
  41   5.24068085e+01  5.24066611e+01  1.40e-09 5.45e-10  1.10e-09     2s
  42   5.24067888e+01  5.24067815e+01  2.16e-10 4.31e-10  5.43e-11     2s
  43   5.24067885e+01  5.24067884e+01  1.44e-10 1.27e-12  1.31e-13     2s

Barrier solved model in 43 iterations and 2.13 seconds (1.84 work units)
Optimal objective 5.24067885e+01


Root relaxation: objective 5.240679e+01, 8230 iterations, 1.90 seconds (1.59 work units)

    Nodes    |    Current Node    |     Objective Bounds      |     Work
 Expl Unexpl |  Obj  Depth IntInf | Incumbent    BestBd   Gap | It/Node Time

     0     0   52.40679    0   16          -   52.40679      -     -    4s
H    0     0                      94.6435130   52.40679  44.6%     -    4s
     0     0   52.97446    0   10   94.64351   52.97446  44.0%     -    8s
H    0     0                      91.3635375   52.97446  42.0%     -    9s
     0     0   52.98377    0   10   91.36354   52.98377  42.0%     -    9s
H    0     0                      85.8667136   53.17225  38.1%     -   11s
     0     0   53.17225    0   11   85.86671   53.17225  38.1%     -   11s
     0     0   53.19327    0    9   85.86671   53.19327  38.1%     -   13s
     0     0   53.39900    0   13   85.86671   53.39900  37.8%     -   15s
H    0     0                      83.5645715   53.41102  36.1%     -   17s
     0     0   53.41102    0   13   83.56457   53.41102  36.1%     -   17s
     0     0   53.48877    0   11   83.56457   53.48877  36.0%     -   18s
     0     0   53.49106    0   12   83.56457   53.49106  36.0%     -   19s
     0     0   53.49129    0   12   83.56457   53.49129  36.0%     -   19s
     0     0   53.49129    0   12   83.56457   53.49129  36.0%     -   19s
     0     0   53.51703    0   11   83.56457   53.51703  36.0%     -   23s
H    0     0                      69.9044921   53.51703  23.4%     -   79s
     0     2   53.51703    0   11   69.90449   53.51703  23.4%     -   81s
     3     8   54.09743    2   14   69.90449   53.56710  23.4%  3204   85s
    15    32   54.53648    4   15   69.90449   54.38797  22.2%  2959   91s
H   29    32                      69.7433734   54.54426  21.8%  3202   91s
    31    58   55.77545    5   15   69.74337   54.54426  21.8%  3345   95s
    99   122   57.58525    7   13   69.74337   56.25585  19.3%  3141  155s
H  108   122                      69.3318231   56.25585  18.9%  3100  155s
   135   142   60.12050    8   13   69.33182   56.25585  18.9%  2937  234s
H  141   142                      69.2592122   56.25585  18.8%  2967  234s
   171   160   61.54031    8   13   69.25921   56.25585  18.8%  2788  238s
   207   175   64.38103    9   12   69.25921   56.25585  18.8%  2676  242s
   258   192     cutoff    9        69.25921   56.25585  18.8%  2539  267s
   301   216   66.66125   10   11   69.25921   56.25585  18.8%  2506  271s
   355   216   69.21801   11   10   69.25921   56.25585  18.8%  2402  275s
   416   216     cutoff   12        69.25921   56.25585  18.8%  2297  280s
   487   231     cutoff   11        69.25921   56.25585  18.8%  2244  285s
   554   230     cutoff   14        69.25921   56.26874  18.8%  2204  290s
   633   235   65.34629    7   11   69.25921   56.26874  18.8%  2161  296s
   713   248   68.35460    8   11   69.25921   56.26874  18.8%  2138  300s
   806   242     cutoff    9        69.25921   56.26874  18.8%  2089  305s
   908   245     cutoff    8        69.25921   56.26874  18.8%  2024  313s
  1011   263   69.23675    8   11   69.25921   56.26874  18.8%  1975  317s
  1125   266     cutoff    9        69.25921   57.17224  17.5%  1921  322s
  1275   243     cutoff    8        69.25921   57.54686  16.9%  1856  337s
  1354   216     cutoff    8        69.25921   57.54686  16.9%  1847  342s
  1518   180   64.04221   10   11   69.25921   57.54686  16.9%  1794  348s
  1685   175   66.43274   11   10   69.25921   57.54686  16.9%  1750  352s
  1850   127   68.68583   13    8   69.25921   57.54686  16.9%  1699  357s
  2037    76     cutoff   10        69.25921   59.15175  14.6%  1637  361s
  2185    24   60.15941    8   11   69.25921   59.15175  14.6%  1588  365s
  2340    51   63.95761   10   11   69.25921   59.15175  14.6%  1552  372s
  2399    42   67.61185   11   10   69.25921   59.15175  14.6%  1557  406s
  2480     7     cutoff   12        69.25921   64.64727  6.66%  1540  410s

Cutting planes:
  Implied bound: 183
  MIR: 1436
  Relax-and-lift: 215

Explored 2596 nodes (3941782 simplex iterations) in 412.53 seconds (739.11 work units)
Thread count was 36 (of 36 available processors)

Solution count 8: 69.2592 69.3318 69.7434 ... 94.6435

Optimal solution found (tolerance 1.00e-02)
Best objective 6.925921223368e+01, best bound 6.925921223368e+01, gap 0.0000%

Gurobi 9.5.0 (linux64) logging started Fri Dec  8 09:53:27 2023

Set parameter LogFile to value "/lustre1/scratch/348/vsc34888/JointResearch/05.Models/06.Benchmarking/F.Representative_days_based_on_Line_Benefit_NN_OC_fy_1/RTS24_mod1_ByStages_nc400/openStarNet_RTS24_mod1_ByStages_nc400.log"
Set parameter Method to value 2
Set parameter MIPFocus to value 1
Set parameter Presolve to value 2
Set parameter RINS to value 100
Set parameter MIPGap to value 0.01
Set parameter Threads to value 36
Set parameter TimeLimit to value 259200
Set parameter IterationLimit to value 760000000
No parameters matching 'relax_integrality' found
Gurobi Optimizer version 9.5.0 build v9.5.0rc5 (linux64)
Thread count: 36 physical cores, 36 logical processors, using up to 36 threads
Optimize a model with 142358 rows, 96071 columns and 354423 nonzeros
Model fingerprint: 0x2bdbbff9
Coefficient statistics:
  Matrix range     [8e-04, 8e+02]
  Objective range  [1e+00, 1e+00]
  Bounds range     [3e-05, 3e+00]
  RHS range        [3e-05, 2e+01]
Presolve removed 119301 rows and 54741 columns
Presolve time: 0.19s
Presolved: 23057 rows, 42097 columns, 101541 nonzeros

Ordering time: 0.00s

Barrier statistics:
 AA' NZ     : 5.600e+04
 Factor NZ  : 2.012e+05 (roughly 22 MB of memory)
 Factor Ops : 2.517e+06 (less than 1 second per iteration)
 Threads    : 36

                  Objective                Residual
Iter       Primal          Dual         Primal    Dual     Compl     Time
   0   1.57467454e+07 -1.50106307e+08  1.45e+02 9.78e+01  1.00e+05     0s
   1   1.06867329e+06 -1.41352802e+08  9.14e+00 2.08e+02  7.95e+03     0s
   2   1.12715244e+05 -5.45650885e+07  8.39e-01 1.05e+01  1.15e+03     0s
   3   3.71076983e+04 -1.34702051e+07  1.39e-01 1.19e+00  2.23e+02     0s
   4   2.41295243e+04 -2.50653340e+06  1.12e-02 1.06e-01  3.60e+01     0s
   5   1.90302009e+04 -7.40241626e+05  5.88e-04 1.47e-02  1.05e+01     0s
   6   1.22277694e+04 -1.50942729e+05  2.44e-05 1.66e-03  2.25e+00     0s
   7   5.18948730e+03 -3.36002997e+04  3.06e-06 7.11e-13  5.35e-01     0s
   8   2.00470182e+03 -8.81905179e+03  8.85e-07 4.55e-13  1.49e-01     0s
   9   4.80098559e+02 -1.20943240e+03  5.69e-08 4.55e-13  2.33e-02     0s
  10   2.89669534e+02 -4.22351463e+02  2.40e-08 9.09e-13  9.82e-03     0s
  11   1.44149479e+02 -9.61401457e+01  5.92e-09 4.55e-13  3.31e-03     0s
  12   8.93553406e+01  4.08805769e+01  1.18e-09 9.09e-13  6.68e-04     0s
  13   7.59931444e+01  5.84156125e+01  3.61e-10 9.09e-13  2.42e-04     0s
  14   7.15379943e+01  6.52611389e+01  1.16e-10 9.09e-13  8.65e-05     0s
  15   7.01175477e+01  6.74525352e+01  4.97e-11 9.09e-13  3.67e-05     0s
  16   6.96503434e+01  6.86233459e+01  4.88e-11 4.55e-13  1.42e-05     0s
  17   6.93818951e+01  6.90241092e+01  9.20e-11 4.55e-13  4.93e-06     0s
  18   6.92835047e+01  6.92160327e+01  5.14e-11 2.27e-13  9.30e-07     0s
  19   6.92658196e+01  6.92513425e+01  2.31e-10 9.09e-13  2.00e-07     0s
  20   6.92595151e+01  6.92590170e+01  3.31e-10 4.55e-13  6.87e-09     1s
  21   6.92592137e+01  6.92592088e+01  5.00e-10 2.27e-13  6.79e-11     1s
  22   6.92592122e+01  6.92592122e+01  9.36e-11 2.27e-13  6.79e-14     1s
  23   6.92592122e+01  6.92592122e+01  1.64e-13 9.09e-13  1.26e-17     1s

Barrier solved model in 23 iterations and 0.53 seconds (0.48 work units)
Optimal objective 6.92592122e+01

Crossover log...

    5210 DPushes remaining with DInf 0.0000000e+00                 1s
       0 DPushes remaining with DInf 0.0000000e+00                 1s

    1322 PPushes remaining with PInf 0.0000000e+00                 1s
       0 PPushes remaining with PInf 0.0000000e+00                 1s

  Push phase complete: Pinf 0.0000000e+00, Dinf 2.0773575e-13      1s

Iteration    Objective       Primal Inf.    Dual Inf.      Time
    1457    6.9259212e+01   0.000000e+00   0.000000e+00      1s

Use crossover to convert LP symmetric solution to basic solution...
Crossover log...

       0 DPushes remaining with DInf 0.0000000e+00                 1s

    1009 PPushes remaining with PInf 0.0000000e+00                 1s
       0 PPushes remaining with PInf 0.0000000e+00                 1s

  Push phase complete: Pinf 0.0000000e+00, Dinf 1.5793164e-13      1s

Iteration    Objective       Primal Inf.    Dual Inf.      Time
    2477    6.9259212e+01   0.000000e+00   0.000000e+00      1s

Solved in 2477 iterations and 0.82 seconds (0.64 work units)
Optimal objective  6.925921223e+01

Gurobi 9.5.0 (linux64) logging started Fri Dec  8 12:12:16 2023

Set parameter LogFile to value "/lustre1/scratch/348/vsc34888/JointResearch/05.Models/06.Benchmarking/F.Representative_days_based_on_Line_Benefit_NN_OC_fy_1/RTS24_mod1_ByStages_nc400/openStarNet_RTS24_mod1_ByStages_nc400.log"
Set parameter Method to value 2
Set parameter MIPFocus to value 1
Set parameter Presolve to value 2
Set parameter RINS to value 100
Set parameter MIPGap to value 0.01
Set parameter Threads to value 36
Set parameter TimeLimit to value 259200
Set parameter IterationLimit to value 760000000
Gurobi Optimizer version 9.5.0 build v9.5.0rc5 (linux64)
Thread count: 36 physical cores, 36 logical processors, using up to 36 threads
Optimize a model with 142358 rows, 96027 columns and 387927 nonzeros
Model fingerprint: 0x238622be
Variable types: 96006 continuous, 21 integer (21 binary)
Coefficient statistics:
  Matrix range     [6e-04, 8e+02]
  Objective range  [1e+00, 1e+00]
  Bounds range     [3e-05, 3e+00]
  RHS range        [3e-05, 3e+00]
Presolve removed 84794 rows and 48677 columns
Presolve time: 0.57s
Presolved: 57564 rows, 47350 columns, 207925 nonzeros
Variable types: 47329 continuous, 21 integer (21 binary)
Root relaxation presolved: 57564 rows, 47350 columns, 207925 nonzeros

Root barrier log...

Ordering time: 0.01s

Barrier statistics:
 Dense cols : 21
 AA' NZ     : 3.862e+05
 Factor NZ  : 1.125e+06 (roughly 50 MB of memory)
 Factor Ops : 2.579e+07 (less than 1 second per iteration)
 Threads    : 35

                  Objective                Residual
Iter       Primal          Dual         Primal    Dual     Compl     Time
   0   6.63931146e+05 -2.93444426e+08  5.30e+00 1.31e+02  6.15e+03     1s
   1   1.06090012e+05 -7.58800023e+07  7.02e-01 2.94e-08  8.58e+02     1s
   2   4.37388108e+04 -4.19620954e+07  1.87e-01 3.07e-08  3.66e+02     1s
   3   2.28061189e+04 -4.78415684e+06  1.00e-02 2.98e-09  3.65e+01     1s
   4   1.72355717e+04 -4.02936321e+05  8.76e-04 9.17e-11  3.14e+00     1s
   5   6.10665545e+03 -9.91812216e+04  7.03e-05 2.02e-11  7.85e-01     1s
   6   2.25094715e+03 -2.26822906e+04  1.50e-05 4.15e-12  1.86e-01     1s
   7   8.46017250e+02 -6.18336150e+03  3.23e-06 1.52e-12  5.24e-02     1s
   8   3.03076204e+02 -1.62435292e+03  1.84e-07 9.09e-13  1.44e-02     1s
   9   2.36647015e+02 -7.14975886e+02  1.08e-07 2.27e-13  7.09e-03     1s
  10   1.21840428e+02 -2.08287742e+02  2.62e-08 4.55e-13  2.46e-03     1s
  11   8.61756008e+01 -5.70275348e+01  1.04e-08 4.55e-13  1.07e-03     1s
  12   7.02060989e+01  2.31654222e+00  5.34e-09 9.09e-13  5.06e-04     1s
  13   6.38174898e+01  2.02504920e+01  3.53e-09 4.55e-13  3.25e-04     1s
  14   6.02353955e+01  2.86010366e+01  2.54e-09 9.09e-13  2.36e-04     1s
  15   5.83656757e+01  3.36893922e+01  2.02e-09 4.55e-13  1.84e-04     1s
  16   5.68612777e+01  3.64991178e+01  1.60e-09 2.27e-13  1.52e-04     1s
  17   5.54660352e+01  4.01311352e+01  1.22e-09 9.09e-13  1.14e-04     1s
  18   5.36416718e+01  4.32851753e+01  7.12e-10 4.55e-13  7.72e-05     1s
  19   5.31741063e+01  4.45372173e+01  5.82e-10 4.55e-13  6.44e-05     1s
  20   5.24954985e+01  4.54537874e+01  3.79e-10 4.55e-13  5.25e-05     1s
  21   5.21399294e+01  4.70387791e+01  2.66e-10 4.55e-13  3.80e-05     1s
  22   5.18547139e+01  4.74885650e+01  1.93e-10 9.09e-13  3.26e-05     2s
  23   5.16316771e+01  4.79288915e+01  1.33e-10 9.09e-13  2.76e-05     2s
  24   5.15299685e+01  4.83891371e+01  1.04e-10 4.55e-13  2.34e-05     2s
  25   5.14474783e+01  4.91698127e+01  7.83e-11 4.55e-13  1.70e-05     2s
  26   5.13626754e+01  4.98111863e+01  5.76e-11 4.55e-13  1.16e-05     2s
  27   5.12892288e+01  5.00207948e+01  3.96e-11 2.27e-13  9.46e-06     2s
  28   5.12512416e+01  5.03539362e+01  3.01e-11 4.55e-13  6.69e-06     2s
  29   5.12097492e+01  5.06488601e+01  1.90e-11 2.27e-13  4.18e-06     2s
  30   5.11761660e+01  5.08484074e+01  3.49e-11 2.27e-13  2.44e-06     2s
  31   5.11690966e+01  5.08734328e+01  2.55e-11 4.55e-13  2.20e-06     2s
  32   5.11550762e+01  5.09516729e+01  3.68e-11 4.55e-13  1.52e-06     2s
  33   5.11430767e+01  5.10215800e+01  3.12e-11 2.27e-13  9.06e-07     2s
  34   5.11388077e+01  5.10421874e+01  3.11e-11 4.55e-13  7.20e-07     2s
  35   5.11353458e+01  5.10925039e+01  8.32e-11 4.55e-13  3.19e-07     2s
  36   5.11344956e+01  5.11015532e+01  5.75e-11 9.09e-13  2.46e-07     2s
  37   5.11334482e+01  5.11223853e+01  7.34e-11 4.55e-13  8.25e-08     2s
  38   5.11330784e+01  5.11284752e+01  8.01e-11 2.90e-12  3.43e-08     2s
  39   5.11329175e+01  5.11294493e+01  5.20e-11 6.55e-12  2.59e-08     2s
  40   5.11328770e+01  5.11304337e+01  6.62e-11 2.79e-11  1.82e-08     2s
  41   5.11327971e+01  5.11307906e+01  1.41e-10 2.73e-11  1.50e-08     2s
  42   5.11327906e+01  5.11310035e+01  1.40e-10 2.61e-11  1.33e-08     2s
  43   5.11327722e+01  5.11311083e+01  2.76e-10 2.20e-11  1.24e-08     2s
  44   5.11327611e+01  5.11312068e+01  2.02e-10 6.31e-12  1.16e-08     2s
  45   5.11327506e+01  5.11315597e+01  1.21e-10 2.73e-11  8.88e-09     2s
  46   5.11327443e+01  5.11317227e+01  1.62e-10 6.69e-12  7.62e-09     2s
  47   5.11327316e+01  5.11318966e+01  3.35e-10 1.17e-10  6.23e-09     2s
  48   5.11327278e+01  5.11319961e+01  3.06e-10 1.18e-10  5.45e-09     2s
  49   5.11327165e+01  5.11321242e+01  1.40e-09 1.79e-10  4.42e-09     2s
  50   5.11327163e+01  5.11321575e+01  1.45e-09 3.23e-10  4.17e-09     2s
  51   5.11327144e+01  5.11321834e+01  1.11e-09 3.31e-10  3.96e-09     2s
  52   5.11327148e+01  5.11322794e+01  1.52e-09 3.28e-10  3.25e-09     2s
  53   5.11327139e+01  5.11323561e+01  1.53e-09 2.86e-10  2.67e-09     2s
  54   5.11327116e+01  5.11323912e+01  9.22e-10 3.08e-10  2.39e-09     2s
  55   5.11327116e+01  5.11324201e+01  9.51e-10 2.83e-10  2.17e-09     2s
  56   5.11327111e+01  5.11324631e+01  1.46e-09 3.66e-10  1.85e-09     2s
  57   5.11327108e+01  5.11325090e+01  8.65e-10 5.04e-10  1.50e-09     2s
  58   5.11327096e+01  5.11325140e+01  5.12e-10 5.32e-10  1.46e-09     2s
  59   5.11327094e+01  5.11326790e+01  4.70e-10 2.15e-09  2.26e-10     3s
  60   5.11327086e+01  5.11327042e+01  2.60e-10 2.95e-10  3.30e-11     3s
  61   5.11327083e+01  5.11327082e+01  2.58e-10 1.88e-12  6.31e-13     3s

Barrier solved model in 61 iterations and 2.55 seconds (2.31 work units)
Optimal objective 5.11327083e+01


Root relaxation: objective 5.113271e+01, 8170 iterations, 2.29 seconds (2.05 work units)

    Nodes    |    Current Node    |     Objective Bounds      |     Work
 Expl Unexpl |  Obj  Depth IntInf | Incumbent    BestBd   Gap | It/Node Time

     0     0   51.13271    0   16          -   51.13271      -     -    3s
H    0     0                      96.3154136   51.13271  46.9%     -    4s
     0     0   51.86171    0    9   96.31541   51.86171  46.2%     -    8s
H    0     0                      92.8956819   51.86171  44.2%     -    9s
H    0     0                      87.0471981   51.90283  40.4%     -   10s
     0     0   51.90283    0    9   87.04720   51.90283  40.4%     -   10s
H    0     0                      84.2318180   52.08210  38.2%     -   12s
     0     0   52.08210    0   13   84.23182   52.08210  38.2%     -   12s
     0     0   52.09005    0   12   84.23182   52.09005  38.2%     -   12s
     0     0   52.20712    0   10   84.23182   52.20712  38.0%     -   15s
     0     0   52.20782    0   10   84.23182   52.20782  38.0%     -   16s
     0     0   52.20785    0   10   84.23182   52.20785  38.0%     -   16s
     0     0   52.27649    0   11   84.23182   52.27649  37.9%     -   18s
     0     0   52.27684    0   11   84.23182   52.27684  37.9%     -   18s
H    0     0                      81.0130741   52.27810  35.5%     -   19s
     0     0   52.27810    0   12   81.01307   52.27810  35.5%     -   19s
     0     0   52.27810    0   12   81.01307   52.27810  35.5%     -   19s
     0     0   52.34211    0   14   81.01307   52.34211  35.4%     -   23s
H    0     0                      78.4245129   52.34211  33.3%     -   32s
H    0     0                      69.2853542   52.34211  24.5%     -  225s
     0     2   52.34211    0   14   69.28535   52.34211  24.5%     -  227s
     3     8   53.27313    2   13   69.28535   52.38467  24.4%  4961  231s
    15    32   53.54168    4   12   69.28535   53.48298  22.8%  3301  236s
    63    96   54.07664    6   11   69.28535   53.66744  22.5%  2457  249s
H   99   126                      68.5969016   54.07973  21.2%  2376  299s
   135   142   56.25936    7   10   68.59690   55.41990  19.2%  2271  302s
   207   157   59.64361    8   13   68.59690   55.99102  18.4%  2069  308s
   256   169   60.05599    9   12   68.59690   56.06459  18.3%  2010  323s
   302   179   62.71433   10   11   68.59690   56.06459  18.3%  1964  328s
   350   198   64.90371   10   11   68.59690   56.06459  18.3%  2035  333s
   397   205   65.01263   11   10   68.59690   56.06459  18.3%  2094  337s
   462   222     cutoff   11        68.59690   56.06459  18.3%  2089  341s
   597   240     cutoff   12        68.59690   56.06459  18.3%  2023  625s
   674   238     cutoff   15        68.59690   56.07402  18.3%  1961  637s
   751   237     cutoff    9        68.59690   57.42626  16.3%  1949  642s
   849   244   60.45597    9   12   68.59690   57.42626  16.3%  1938  648s
   931   246   66.16305    9   12   68.59690   57.42626  16.3%  1942  653s
  1027   272   64.23233   10   11   68.59690   57.42626  16.3%  1940  659s
  1141   263   65.96809   10   11   68.59690   57.42626  16.3%  1903  669s
  1219   264     cutoff   11        68.59690   57.42626  16.3%  1891  673s
  1364   269     cutoff   11        68.59690   57.42626  16.3%  1840  677s
  1513   241     cutoff   10        68.59690   58.57268  14.6%  1783  682s
  1697   218   61.45929    9   10   68.59690   58.57268  14.6%  1717  807s
  1860   197   65.46666   11   10   68.59690   58.57268  14.6%  1676  819s
  1957   152   65.88520   12    9   68.59690   58.57268  14.6%  1651  824s
  2197   104   68.29183   14    7   68.59690   59.71808  12.9%  1583 1051s
  2363    44   62.57891    9   10   68.59690   59.71808  12.9%  1541 1055s
  2515    24   68.51110   10   10   68.59690   59.71808  12.9%  1504 1060s
  2586    17     cutoff   11        68.59690   64.26562  6.31%  1511 1065s

Cutting planes:
  MIR: 1460
  Relax-and-lift: 243

Explored 2687 nodes (4029493 simplex iterations) in 1068.57 seconds (1924.93 work units)
Thread count was 36 (of 36 available processors)

Solution count 8: 68.5969 69.2854 78.4245 ... 96.3154

Optimal solution found (tolerance 1.00e-02)
Best objective 6.859690160258e+01, best bound 6.859690160258e+01, gap 0.0000%

Gurobi 9.5.0 (linux64) logging started Fri Dec  8 12:31:12 2023

Set parameter LogFile to value "/lustre1/scratch/348/vsc34888/JointResearch/05.Models/06.Benchmarking/F.Representative_days_based_on_Line_Benefit_NN_OC_fy_1/RTS24_mod1_ByStages_nc400/openStarNet_RTS24_mod1_ByStages_nc400.log"
Set parameter Method to value 2
Set parameter MIPFocus to value 1
Set parameter Presolve to value 2
Set parameter RINS to value 100
Set parameter MIPGap to value 0.01
Set parameter Threads to value 36
Set parameter TimeLimit to value 259200
Set parameter IterationLimit to value 760000000
No parameters matching 'relax_integrality' found
Gurobi Optimizer version 9.5.0 build v9.5.0rc5 (linux64)
Thread count: 36 physical cores, 36 logical processors, using up to 36 threads
Optimize a model with 142358 rows, 96006 columns and 354222 nonzeros
Model fingerprint: 0x1833daf4
Coefficient statistics:
  Matrix range     [6e-04, 8e+02]
  Objective range  [1e+00, 1e+00]
  Bounds range     [3e-05, 3e+00]
  RHS range        [3e-05, 2e+01]
Presolve removed 119128 rows and 53605 columns
Presolve time: 0.16s
Presolved: 23230 rows, 42401 columns, 100067 nonzeros

Ordering time: 0.00s

Barrier statistics:
 AA' NZ     : 5.159e+04
 Factor NZ  : 1.981e+05 (roughly 20 MB of memory)
 Factor Ops : 2.546e+06 (less than 1 second per iteration)
 Threads    : 36

                  Objective                Residual
Iter       Primal          Dual         Primal    Dual     Compl     Time
   0   3.85510077e+06 -8.07106895e+07  4.82e+01 3.02e+01  2.03e+04     0s
   1   2.06213527e+05 -6.25261382e+07  2.14e+00 1.92e-12  1.64e+03     0s
   2   6.48014178e+04 -1.70671521e+07  5.22e-01 4.29e-12  3.52e+02     0s
   3   2.82844629e+04 -2.66730511e+06  5.11e-02 1.89e-12  4.24e+01     0s
   4   2.00455877e+04 -6.76933111e+05  4.16e-03 1.25e-12  9.85e+00     0s
   5   1.33449162e+04 -2.00990006e+05  2.12e-04 6.56e-13  2.99e+00     0s
   6   5.59523496e+03 -4.22846978e+04  1.09e-05 5.56e-13  6.67e-01     0s
   7   2.06652583e+03 -9.86581899e+03  2.10e-06 2.71e-13  1.66e-01     0s
   8   7.64530969e+02 -2.79860711e+03  3.94e-07 1.14e-13  4.97e-02     0s
   9   3.05299511e+02 -7.58565059e+02  3.11e-08 4.55e-13  1.48e-02     0s
  10   2.12493171e+02 -4.16243826e+02  1.68e-08 2.27e-13  8.76e-03     0s
  11   1.33380248e+02 -8.48704906e+01  5.29e-09 4.55e-13  3.04e-03     0s
  12   9.13599937e+01  3.00110505e+01  1.48e-09 4.55e-13  8.55e-04     0s
  13   7.67176745e+01  5.92673847e+01  4.92e-10 2.27e-13  2.43e-04     0s
  14   7.15690922e+01  6.51244192e+01  1.71e-10 2.27e-13  8.98e-05     0s
  15   6.99043999e+01  6.72974758e+01  7.37e-11 2.27e-13  3.63e-05     0s
  16   6.90755264e+01  6.80679989e+01  2.92e-11 2.27e-13  1.40e-05     0s
  17   6.87803576e+01  6.84231852e+01  3.89e-11 2.27e-13  4.98e-06     0s
  18   6.86092516e+01  6.85627280e+01  3.23e-11 2.27e-13  6.48e-07     0s
  19   6.85982514e+01  6.85881239e+01  3.37e-11 1.14e-13  1.41e-07     0s
  20   6.85970143e+01  6.85966614e+01  4.60e-11 2.27e-13  4.92e-09     0s
  21   6.85969038e+01  6.85968948e+01  5.32e-11 4.55e-13  1.25e-10     0s
  22   6.85969016e+01  6.85969016e+01  9.96e-12 1.14e-13  1.25e-13     0s
  23   6.85969016e+01  6.85969016e+01  9.41e-14 2.27e-13  1.71e-17     0s

Barrier solved model in 23 iterations and 0.46 seconds (0.45 work units)
Optimal objective 6.85969016e+01

Crossover log...

    5133 DPushes remaining with DInf 0.0000000e+00                 0s
       0 DPushes remaining with DInf 0.0000000e+00                 0s

    1339 PPushes remaining with PInf 0.0000000e+00                 0s
       0 PPushes remaining with PInf 0.0000000e+00                 1s

  Push phase complete: Pinf 0.0000000e+00, Dinf 1.3206953e-13      1s

Iteration    Objective       Primal Inf.    Dual Inf.      Time
    1385    6.8596902e+01   0.000000e+00   0.000000e+00      1s

Use crossover to convert LP symmetric solution to basic solution...
Crossover log...

     955 PPushes remaining with PInf 0.0000000e+00                 1s
       0 PPushes remaining with PInf 0.0000000e+00                 1s

  Push phase complete: Pinf 0.0000000e+00, Dinf 1.7206999e-13      1s

Iteration    Objective       Primal Inf.    Dual Inf.      Time
    2343    6.8596902e+01   0.000000e+00   0.000000e+00      1s

Solved in 2343 iterations and 0.71 seconds (0.61 work units)
Optimal objective  6.859690160e+01
